objective value:                                   -4
t_n_9                                               1 	(obj:-1)
t_n_696                                             1 	(obj:-1)
t_n_1323                                            1 	(obj:-1)
t_n_1576                                            1 	(obj:-1)
